letting np_cars_plus be 152
letting np_classes be 21
letting np_options be 143
letting quantity_range_min be 194
letting quantity_range_delta be 40
letting maxcars_range_min be 2
letting maxcars_range_delta be 0
letting blksize_delta_range_min be 9
letting blksize_delta_range_delta be 5
letting usage_card_min be 470
letting usage_card_delta be 36
letting blksize_delta_range_max be 9
letting maxcars_range_max be 2
letting quantity_range_max be 194
letting usage_card_max be 470
